002 002 001 002 002 002 003 003 003 004 002 004 004 004 004 002 003 003 002 003 006 010 009 012 011 003 003 003 003 007 007
002 002 002 001 002 002 002 003 001 003 002 002 001 003 003 002 003 003 004 003 008 013 006 009 007 005 001 002 002 007 008
001 002 002 001 002 002 002 004 003 001 001 002 002 002 002 001 002 003 002 001 009 014 008 008 005 004 001 001 002 -99 008
001 001 001 001 002 003 004 006 003 002 002 002 001 000 001 001 002 003 003 002 007 019 007 005 005 004 001 001 -99 -99 007
002 001 001 004 002 005 005 005 006 001 001 001 001 001 001 000 001 002 005 003 004 017 006 004 005 002 002 001 -99 -99 007
001 001 002 003 003 004 006 009 004 002 001 001 000 000 001 001 001 002 010 009 004 006 004 002 002 003 002 -99 -99 -99 007
001 000 001 001 002 005 009 005 002 001 001 001 000 000 001 001 002 002 007 017 008 004 003 001 002 002 -99 -99 -99 -99 -99
000 000 001 001 002 007 010 005 001 002 002 002 000 000 001 001 002 003 009 028 014 006 012 003 002 002 003 -99 -99 004 003
000 000 002 003 003 009 010 003 000 002 001 002 000 000 001 001 002 001 003 018 015 012 009 005 002 003 003 003 014 010 003
000 000 002 005 003 008 011 002 001 003 002 002 001 000 001 002 004 003 003 007 009 010 011 006 007 003 003 002 006 016 005
000 001 003 009 005 011 007 001 002 004 004 003 002 002 001 002 003 004 002 003 004 004 007 005 003 002 002 002 005 008 004
000 002 006 009 009 006 004 005 002 003 002 002 002 002 002 005 003 004 002 001 001 003 004 003 004 002 001 002 004 004 003
000 000 004 011 010 006 007 006 002 001 000 001 002 003 004 015 004 004 002 001 001 001 -99 001 003 002 001 000 005 005 003
000 001 002 009 014 007 009 006 007 001 000 000 001 001 005 025 006 004 002 001 001 001 005 001 003 002 000 001 006 006 002
000 000 003 003 018 011 008 005 002 000 000 000 001 001 004 014 005 003 002 002 001 001 005 001 003 001 000 001 003 003 001
000 000 002 003 016 007 002 002 001 000 000 000 000 001 004 006 003 003 002 002 001 002 004 002 003 001 000 001 001 001 002
000 001 002 004 004 001 000 001 000 000 000 000 000 000 001 002 003 002 001 000 001 002 002 002 004 002 000 000 001 000 001
001 002 001 002 001 001 000 000 000 000 000 000 000 000 000 000 002 000 000 000 001 002 002 001 005 003 000 000 001 000 002
002 005 002 002 001 001 000 001 000 000 000 000 000 000 000 000 001 000 000 000 000 001 003 007 008 004 002 003 -99 001 005
002 005 005 002 001 000 000 000 001 001 000 000 000 000 000 000 000 000 000 000 000 001 003 007 008 004 002 003 -99 001 005
001 003 002 002 001 001 000 000 001 001 001 000 000 000 000 000 000 000 000 001 000 001 004 012 008 017 020 006 006 -99 -99
001 002 002 002 000 001 001 001 001 001 001 001 001 000 001 000 000 000 000 000 000 001 004 012 010 017 019 007 007 -99 -99
001 001 002 001 000 001 000 002 001 002 004 001 001 001 000 000 000 000 000 000 000 000 002 011 013 024 019 010 012 -99 -99
000 001 001 001 002 000 001 004 003 002 011 004 001 001 000 000 000 000 001 000 000 000 001 007 015 028 021 -99 016 -99 -99
000 000 000 001 003 002 003 003 001 001 006 006 001 000 000 000 000 000 001 000 000 000 001 007 014 025 021 -99 029 024 011
000 000 000 002 003 005 008 006 003 003 005 004 001 001 000 000 000 000 000 000 000 000 000 008 011 -99 -99 -99 048 030 015
000 000 001 003 005 009 009 005 003 004 003 003 002 000 000 000 000 000 000 000 000 000 000 010 014 -99 012 -99 -99 021 013
001 001 003 004 003 004 004 003 002 005 004 002 001 000 000 000 000 000 000 000 000 000 000 008 010 -99 009 -99 020 015 011
003 002 001 002 002 001 002 002 001 005 004 002 000 000 000 000 000 000 000 000 000 000 -99 003 011 012 011 012 016 010 009
002 001 000 001 002 000 000 000 000 003 002 003 001 000 000 000 000 000 000 000 000 000 003 006 016 013 015 014 012 010 008
000 000 000 000 001 000 000 000 000 001 001 003 001 000 000 000 000 000 000 000 000 000 001 005 013 013 017 015 012 -99 006
000 000 000 000 001 001 001 001 002 000 001 002 000 001 001 000 000 000 000 000 000 001 003 007 013 017 017 020 012 015 008
001 000 000 000 001 002 004 002 003 001 001 000 001 001 001 000 000 000 000 000 000 001 007 009 016 026 019 013 010 013 009
001 000 001 000 000 001 002 001 001 001 001 000 000 001 000 000 000 000 000 001 000 001 010 007 013 017 021 016 009 012 010
001 001 000 000 000 001 001 000 000 000 001 000 000 001 000 000 000 000 001 001 000 003 004 006 013 021 016 017 009 010 006
000 000 000 000 000 001 001 001 000 000 000 000 000 001 001 001 000 000 000 000 000 002 001 008 017 021 011 010 011 008 003
000 000 000 000 000 001 001 000 000 000 000 000 000 001 000 000 000 000 000 001 003 003 004 019 020 014 008 006 006 005 002
000 000 000 000 001 000 000 000 001 000 000 000 000 001 001 000 000 000 000 001 005 003 004 007 006 005 005 002 002 004 002
001 000 001 001 001 000 000 002 002 001 000 000 000 000 000 000 000 000 001 002 003 003 006 005 003 002 004 003 003 004 002
001 001 001 001 001 001 002 002 005 001 001 000 000 000 000 000 000 000 000 001 001 003 004 003 001 003 013 007 007 006 002
000 000 000 000 001 002 002 002 003 003 001 001 000 000 000 000 000 000 000 000 001 003 005 005 002 002 009 009 015 008 006
000 000 000 000 000 001 001 001 004 004 002 000 001 000 000 000 000 000 000 000 001 006 010 011 004 003 003 009 016 007 004
000 000 000 000 000 000 001 000 002 003 002 001 002 000 000 000 000 000 000 000 002 010 010 016 007 003 001 004 007 003 003
000 000 000 000 000 002 001 001 002 003 001 001 004 002 000 000 000 001 001 000 004 006 011 019 006 002 000 000 001 004 003
000 000 000 000 002 003 003 003 002 002 001 002 003 002 000 000 001 007 005 003 003 002 006 008 003 002 000 000 001 003 005
000 000 000 000 002 003 004 004 005 004 001 001 002 003 001 001 002 006 007 002 002 002 003 005 007 003 000 000 001 003 007
000 000 000 000 001 002 005 003 003 003 002 002 002 001 001 001 002 002 002 002 005 005 006 007 019 003 000 000 -99 002 011
-99 000 000 000 003 002 004 003 003 002 001 001 001 001 001 000 000 000 000 002 009 011 011 013 010 003 000 000 000 001 003
-99 -99 000 000 001 001 003 003 004 003 002 000 000 000 000 000 000 000 000 001 003 009 021 009 004 002 000 000 000 000 000
-99 -99 000 000 000 001 002 005 002 002 001 000 000 000 000 000 000 000 000 000 001 009 005 002 001 002 000 000 000 000 000
-99 -99 -99 000 000 001 002 003 004 003 002 001 000 000 000 000 000 000 000 000 001 002 001 001 000 001 000 000 000 000 -99
-99 -99 -99 -99 000 001 002 005 005 004 003 001 000 000 000 000 000 000 000 000 000 001 001 000 000 001 000 -99 -99 -99 -99
-99 -99 -99 000 000 001 002 006 008 007 002 001 000 000 000 000 000 000 000 000 000 000 -99 000 001 000 000 -99 -99 -99 000
-99 -99 -99 000 000 000 002 004 004 002 001 000 000 000 000 000 000 000 000 000 -99 -99 -99 000 002 000 000 -99 -99 000 000
000 -99 -99 000 000 000 001 001 001 001 000 000 000 001 003 002 001 000 000 000 -99 -99 -99 000 001 000 000 000 -99 000 000
